
List of user-set options:

                                    Name   Value                used
                           compl_inf_tol = 1                     yes
                         constr_viol_tol = 1                     yes
                            dual_inf_tol = 1000                  yes
                           linear_solver = ma97                  yes
                              ma86_small = 1e-30                  no
                                  ma86_u = 0.0001                 no
                              ma97_order = best                  yes
                              ma97_small = 1e-30                 yes
                            ma97_switch1 = at_start              yes
                            ma97_switch2 = od_hd_reuse           yes
                                  ma97_u = 1e-06                 yes
                               ma97_umax = 0.5                   yes
                                max_iter = 1000                  yes
                    max_refinement_steps = 20                    yes
                    min_refinement_steps = 5                     yes
                                 mu_init = 1e-06                 yes
           mu_superlinear_decrease_power = 1.25                  yes
                   nlp_scaling_min_value = 1e-08                 yes
                        option_file_name = Preset_Case:_961_NCP.opt  yes
                             output_file = ./tmp/Preset_Case:_961_NCP.output  yes
                      print_user_options = yes                   yes
        required_infeasibility_reduction = 1                      no
                                     tol = 1e-08                 yes
                   warm_start_bound_frac = 1e-20                 yes
                   warm_start_bound_push = 1e-20                 yes
                   warm_start_init_point = yes                   yes
              warm_start_mult_bound_push = 1e-20                 yes
                warm_start_mult_init_max = 1e+40                 yes
             warm_start_slack_bound_frac = 1e-20                 yes
             warm_start_slack_bound_push = 1e-20                 yes

******************************************************************************
This program contains Ipopt, a library for large-scale nonlinear optimization.
 Ipopt is released as open source code under the Eclipse Public License (EPL).
         For more information visit http://projects.coin-or.org/Ipopt
******************************************************************************

This is Ipopt version 3.12.10, running with linear solver ma97.

Number of nonzeros in equality constraint Jacobian...:   117167
Number of nonzeros in inequality constraint Jacobian.:      213
Number of nonzeros in Lagrangian Hessian.............:    47513

Total number of variables............................:    29977
                     variables with only lower bounds:    11312
                variables with lower and upper bounds:    15135
                     variables with only upper bounds:        0
Total number of equality constraints.................:    29864
Total number of inequality constraints...............:       25
        inequality constraints with only lower bounds:        4
   inequality constraints with lower and upper bounds:        0
        inequality constraints with only upper bounds:       21

iter    objective    inf_pr   inf_du lg(mu)  ||d||  lg(rg) alpha_du alpha_pr  ls
   0 -1.9315462e-02 2.56e-01 2.00e+00  -6.0 0.00e+00    -  0.00e+00 0.00e+00   0
In iteration 0, 8 Slacks too small, adjusting variable bounds
   1 -1.9315462e-02 2.56e-01 1.30e+03  -6.0 1.08e+10    -  1.30e-13 1.10e-18h  1
   2 -1.9315768e-02 2.56e-01 1.30e+03  -6.0 2.54e+02    -  9.47e-03 2.41e-05f  1
   3 -1.9542118e-02 2.52e-01 1.30e+03  -6.0 1.99e+02    -  6.66e-08 1.67e-02f  1
   4 -1.9826877e-02 2.46e-01 1.27e+03  -6.0 1.99e+02    -  2.47e-02 2.30e-02h  1
   5r-1.9826877e-02 2.46e-01 1.00e+03  -0.6 0.00e+00    -  0.00e+00 2.06e-07R  2
   6r-1.9822093e-02 2.46e-01 2.45e+03  -0.6 2.68e+03    -  2.61e-06 3.70e-07f  1
   7 -1.9827214e-02 2.46e-01 2.75e+06  -6.0 2.19e+02    -  2.83e-02 5.07e-04h  1
   8 -1.9833592e-02 2.46e-01 3.21e+06  -6.0 2.13e+02    -  5.08e-04 5.91e-04h  1
   9 -1.9938452e-02 2.43e-01 3.17e+06  -6.0 2.75e+02    -  1.34e-03 1.28e-02h  1
iter    objective    inf_pr   inf_du lg(mu)  ||d||  lg(rg) alpha_du alpha_pr  ls
  10 -1.9945185e-02 2.42e-01 3.16e+06  -6.0 2.97e+02    -  2.31e-02 1.36e-03h  1
  11 -2.0068994e-02 2.36e-01 3.07e+06  -6.0 3.08e+02    -  1.78e-03 2.75e-02h  1
  12r-2.0068994e-02 2.36e-01 1.00e+03  -0.6 0.00e+00    -  0.00e+00 2.97e-07R  3
  13r-2.0056282e-02 2.36e-01 1.00e+03  -0.6 1.71e+04    -  4.08e-06 1.04e-06f  1
  14 -2.0056308e-02 2.36e-01 4.37e+02  -6.0 1.80e+02    -  2.35e-03 3.04e-06h  2
  15 -2.0056382e-02 2.36e-01 2.47e+05  -6.0 2.76e+02    -  5.29e-02 1.56e-05h  1
  16 -2.0094848e-02 2.35e-01 2.36e+05  -6.0 3.80e+02    -  1.06e-03 2.90e-03h  1
  17 -2.0175551e-02 2.34e-01 9.57e+05  -6.0 4.38e+02    -  1.35e-01 5.47e-03h  1
  18 -2.2020914e-02 1.72e+00 3.11e+05  -6.0 5.07e+02    -  5.51e-03 1.48e-01h  1
  19 -2.1955391e-02 1.71e+00 9.36e+05  -6.0 7.05e+02    -  1.70e-01 9.53e-03h  1
iter    objective    inf_pr   inf_du lg(mu)  ||d||  lg(rg) alpha_du alpha_pr  ls
  20 -2.1864192e-02 1.70e+00 9.36e+05  -6.0 8.09e+02    -  9.90e-03 8.31e-03h  4
  21 -2.1697311e-02 1.68e+00 9.12e+05  -6.0 8.23e+02    -  1.19e-02 1.41e-02h  3
  22 -2.1575902e-02 1.67e+00 9.31e+05  -6.0 8.02e+02    -  1.65e-02 1.06e-02h  3
  23 -2.1464016e-02 1.66e+00 1.94e+06  -6.0 8.11e+02    -  2.17e-01 1.06e-02h  3
  24 -2.1393921e-02 1.65e+00 2.04e+06  -6.0 9.08e+02    -  4.36e-02 8.35e-03h  3
  25 -2.1380868e-02 1.64e+00 2.86e+06  -6.0 9.14e+02    -  2.66e-01 1.60e-03h  5
  26 -2.1378727e-02 1.64e+00 2.90e+06  -6.0 9.57e+02    -  3.89e-02 2.63e-04h  7
  27 -2.1377688e-02 1.64e+00 3.18e+06  -6.0 9.62e+02    -  2.74e-01 1.28e-04h  8
  28 -2.1252519e-02 1.62e+00 3.13e+06  -6.0 9.97e+02    -  3.06e-02 1.58e-02h  1
  29 -2.1044708e-02 1.60e+00 2.95e+06  -6.0 9.56e+02    -  3.37e-01 3.74e-02h  4
iter    objective    inf_pr   inf_du lg(mu)  ||d||  lg(rg) alpha_du alpha_pr  ls
  30 -2.0865191e-02 1.56e+00 2.72e+06  -6.0 9.33e+02    -  1.76e-01 3.52e-02h  4
  31 -2.0680468e-02 1.53e+00 2.57e+06  -6.0 9.44e+02    -  8.68e-02 3.43e-02h  4
  32 -2.0332445e-02 1.48e+00 2.11e+06  -6.0 9.63e+02    -  3.60e-01 6.18e-02h  3
  33 -2.0190736e-02 1.47e+00 3.78e+06  -6.0 6.24e+02  -4.0 4.27e-01 1.92e-02h  5
  34 -2.0008977e-02 1.45e+00 6.82e+06  -6.0 4.98e+02  -3.6 3.92e-01 2.13e-02h  5
  35 -1.9859988e-02 1.43e+00 6.03e+06  -6.0 6.10e+02  -4.1 4.83e-01 2.41e-02h  4
  36 -1.9769274e-02 1.42e+00 8.69e+06  -6.0 5.18e+02  -3.6 4.95e-01 1.10e-02h  6
  37 -1.9441904e-02 1.34e+00 6.70e+06  -6.0 7.47e+02  -4.1 3.89e-01 5.73e-02h  3
  38 -1.9285074e-02 1.32e+00 8.72e+06  -6.0 5.02e+02  -3.7 5.85e-01 2.13e-02h  5
  39 -1.9023771e-02 6.46e-01 7.19e+06  -6.0 1.26e+03  -4.2 2.04e-01 7.80e-02h  1
iter    objective    inf_pr   inf_du lg(mu)  ||d||  lg(rg) alpha_du alpha_pr  ls
  40 -1.8702601e-02 6.29e-01 6.00e+06  -6.0 5.15e+02  -4.6 1.86e-01 4.81e-02h  4
  41 -1.8380101e-02 6.10e-01 6.03e+06  -6.0 4.55e+02  -4.2 7.77e-01 5.21e-02h  2
  42 -1.8121891e-02 5.92e-01 8.01e+06  -6.0 3.72e+02  -3.8 6.69e-01 4.43e-02h  4
  43 -1.7765986e-02 5.71e-01 1.57e+07  -6.0 3.97e+02  -4.3 4.52e-01 7.35e-02h  3
  44 -1.7389178e-02 5.44e-01 2.85e+07  -6.0 3.38e+02  -3.8 7.32e-01 8.06e-02h  3
  45 -1.7172172e-02 5.30e-01 4.17e+07  -6.0 3.56e+02  -4.3 5.79e-01 6.76e-02h  4
  46 -1.5932109e-02 7.16e-01 4.04e+07  -6.0 2.88e+02  -3.9 8.07e-01 3.37e-01H  1
  47 -1.6026133e-02 1.05e+00 4.60e+07  -6.0 1.79e+03  -4.4 1.54e-01 3.37e-02h  2
  48 -1.5794520e-02 1.91e+00 6.84e+07  -6.0 3.68e+02  -3.9 6.09e-01 1.76e-01h  1
  49 -1.5498792e-02 2.60e+00 2.09e+08  -6.0 1.79e+02  -3.5 1.86e-04 3.19e-01H  1
iter    objective    inf_pr   inf_du lg(mu)  ||d||  lg(rg) alpha_du alpha_pr  ls
  50 -1.5464757e-02 2.24e+00 1.66e+08  -6.0 6.53e+01  -3.1 1.52e-01 2.04e-01h  2
  51 -1.4946770e-02 6.93e+00 5.09e+08  -6.0 7.16e+01  -3.6 2.18e-06 4.65e-01H  1
  52 -1.4846594e-02 6.87e+00 5.05e+08  -6.0 1.76e+02  -2.2 4.02e-07 7.51e-03h  4
  53 -1.4767665e-02 6.85e+00 5.03e+08  -6.0 3.22e+02  -2.7 9.62e-04 4.08e-03h  4
  54 -1.3867282e-02 6.29e+00 2.57e+09  -6.0 1.39e+02  -2.3 3.21e-03 8.46e-02h  2
  55 -1.3603150e-02 6.14e+00 2.51e+09  -6.0 2.70e+01  -1.9 4.76e-03 2.35e-02h  1
  56 -1.2787384e-02 5.64e+00 2.31e+09  -6.0 3.82e+01  -2.3 1.81e-02 8.06e-02h  1
  57 -1.2720473e-02 5.50e+00 2.25e+09  -6.0 5.87e+01  -2.8 3.37e-02 2.47e-02h  1
  58 -1.1973803e-02 3.76e+00 1.55e+09  -6.0 2.94e+01  -2.4 4.75e-02 3.13e-01h  1
  59 -1.1759321e-02 3.31e+00 1.36e+09  -6.0 3.48e+01  -2.9 2.63e-01 1.20e-01h  1
iter    objective    inf_pr   inf_du lg(mu)  ||d||  lg(rg) alpha_du alpha_pr  ls
  60 -1.3107136e-02 2.07e+00 8.33e+08  -6.0 1.06e+02  -3.3 4.89e-05 3.89e-01h  1
  61 -1.3015727e-02 6.11e-02 2.22e+07  -6.0 2.47e+00  -2.0 2.44e-01 1.00e+00h  1
  62 -1.2986826e-02 9.70e-04 1.69e+05  -6.0 2.14e+00  -2.5 7.78e-01 1.00e+00h  1
  63 -1.3000997e-02 9.97e-06 8.27e+03  -6.0 6.95e-02  -3.0 9.55e-01 1.00e+00h  1
  64 -1.3047142e-02 8.78e-05 7.98e+02  -6.0 1.60e-01  -3.4 9.04e-01 1.00e+00h  1
  65 -1.3402154e-02 3.36e-02 5.02e+02  -6.0 2.72e+00  -3.9 3.72e-01 1.00e+00h  1
  66 -1.3838244e-02 7.73e-03 2.47e+02  -6.0 1.40e+00  -4.4 5.07e-01 1.00e+00h  1
  67 -1.5246423e-02 7.04e-02 1.65e+02  -6.0 3.26e+00  -4.9 3.35e-01 1.00e+00h  1
  68 -1.5311737e-02 6.23e-02 1.39e+02  -6.0 1.67e+00  -4.4 1.58e-01 1.15e-01h  1
  69 -1.6512138e-02 4.77e-02 1.22e+02  -6.0 3.51e+00  -4.9 1.19e-01 7.87e-01f  1
iter    objective    inf_pr   inf_du lg(mu)  ||d||  lg(rg) alpha_du alpha_pr  ls
  70 -1.6501731e-02 4.71e-02 1.18e+02  -6.0 2.92e+00  -2.7 3.43e-02 1.14e-02h  1
  71 -1.6511588e-02 4.13e-02 1.27e+02  -6.0 1.58e+00  -3.2 7.80e-02 1.25e-01h  1
  72 -1.6518652e-02 3.84e-02 1.41e+02  -6.0 1.77e+00  -3.6 1.64e-04 7.02e-02h  1
  73 -1.6516479e-02 3.84e-02 1.37e+02  -6.0 8.80e+01  -4.1 1.90e-02 4.94e-04h  1
  74 -1.6661296e-02 5.40e-03 8.99e+01  -6.0 2.29e+00  -4.6 3.28e-01 1.00e+00h  1
  75 -1.6892524e-02 1.68e-02 2.72e+01  -6.0 2.13e+00  -5.1 6.21e-01 1.00e+00h  1
  76 -1.7097914e-02 3.46e-02 1.12e+01  -6.0 4.75e+00  -5.6 7.94e-01 5.13e-01h  1
  77 -1.7327289e-02 9.82e-02 9.66e+00  -6.0 1.10e+01  -6.0 7.10e-01 3.56e-01f  1
  78 -1.7544666e-02 7.62e-02 7.90e+00  -6.0 1.78e+01  -6.5 6.65e-01 2.00e-01h  1
  79 -1.8315554e-02 1.13e+00 1.34e+01  -6.0 4.49e+01  -7.0 1.00e+00 4.43e-01h  1
iter    objective    inf_pr   inf_du lg(mu)  ||d||  lg(rg) alpha_du alpha_pr  ls
  80 -1.8902765e-02 2.00e+00 3.16e+01  -6.0 3.35e+02  -7.5 8.49e-01 1.30e-01h  1
  81 -1.9023601e-02 1.88e+00 6.53e+01  -6.0 7.35e+01  -7.0 9.66e-01 8.04e-02h  1
  82 -1.9385092e-02 2.20e+00 5.75e+01  -6.0 7.85e+02  -7.5 1.74e-01 4.33e-02h  3
  83 -2.1071208e-02 2.77e+00 6.22e+01  -6.0 9.27e+01  -7.1 1.29e-01 1.00e+00H  1
  84 -2.1251401e-02 2.53e+00 2.79e+01  -6.0 4.09e+01  -6.7 8.63e-01 2.03e-01h  1
  85 -2.1865037e-02 3.30e+00 1.53e+01  -6.0 1.32e+02  -7.1 1.00e+00 3.26e-01h  1
  86 -2.2146355e-02 3.42e+00 1.52e+01  -6.0 5.40e+01  -6.7 1.00e+00 2.50e-01h  3
  87 -2.2319426e-02 3.68e+00 1.95e+01  -6.0 6.28e+02  -7.2 5.34e-02 1.66e-02h  3
  88 -2.2321690e-02 3.68e+00 5.15e+01  -6.0 8.98e+02  -6.8 5.20e-02 1.73e-04h  6
  89 -2.2354778e-02 3.68e+00 5.24e+01  -6.0 7.40e+02  -7.2 5.48e-03 3.36e-03h  6
iter    objective    inf_pr   inf_du lg(mu)  ||d||  lg(rg) alpha_du alpha_pr  ls
  90 -2.2395639e-02 3.66e+00 2.95e+02  -6.0 1.35e+02  -6.8 1.00e+00 1.99e-02h  5
  91 -2.2468146e-02 3.70e+00 2.88e+02  -6.0 6.90e+02  -7.3 2.34e-02 8.28e-03h  5
  92 -2.2516481e-02 3.70e+00 9.69e+01  -6.0 1.55e+02  -6.9 6.74e-01 2.19e-02h  5
  93 -2.2610047e-02 3.58e+00 5.92e+01  -6.0 2.99e+01  -6.4 6.38e-01 8.73e-02h  4
  94 -2.2760591e-02 5.76e+00 5.28e+01  -6.0 4.64e+02  -6.9 8.23e-03 2.51e-02h  1
  95 -2.2966705e-02 7.03e+00 4.49e+01  -6.0 4.45e+01  -6.5 4.39e-01 1.59e-01h  1
  96 -2.3352420e-02 5.36e+00 4.39e+01  -6.0 6.80e+01  -7.0 1.56e-01 2.45e-01h  1
  97 -2.3343269e-02 4.84e+00 3.60e+01  -6.0 4.82e+01  -7.4 1.76e-01 1.16e-01h  1
  98 -2.3944558e-02 4.16e+00 3.47e+01  -6.0 2.27e+02  -7.9 1.04e-01 2.73e-01h  1
  99 -2.4680819e-02 4.65e+00 4.09e+01  -6.0 3.63e+02  -8.4 1.35e-01 2.75e-01h  1
iter    objective    inf_pr   inf_du lg(mu)  ||d||  lg(rg) alpha_du alpha_pr  ls
 100 -2.4866996e-02 4.49e+00 4.08e+01  -6.0 7.86e+02  -8.9 9.23e-02 4.38e-02h  1
 101 -2.4846642e-02 1.60e+00 5.93e+01  -6.0 3.24e+01  -6.6 9.22e-02 1.00e+00h  1
 102 -2.4882136e-02 1.62e+00 5.87e+01  -6.0 3.55e+01  -6.2 4.91e-02 1.56e-02H  1
 103 -2.4870200e-02 1.61e+00 5.90e+01  -6.0 8.55e+02  -6.7 3.52e-04 9.43e-04h  1
 104 -2.4801471e-02 1.60e+00 5.75e+01  -6.0 3.67e+02  -6.3 3.11e-02 9.97e-03h  1
 105 -2.5036443e-02 1.53e+00 5.45e+01  -6.0 2.25e+01  -6.7 7.21e-02 6.58e-02F  1
 106 -2.4921490e-02 1.03e+00 5.37e+01  -6.0 6.88e+01  -5.4 3.44e-02 5.50e-02h  1
 107 -2.4899554e-02 1.87e-01 3.86e+01  -6.0 6.62e+00  -5.9 1.14e-01 1.00e+00f  1
 108 -2.4909601e-02 1.79e-01 8.50e+00  -6.0 1.25e+01  -6.4 9.57e-01 4.13e-02h  1
 109 -2.5190529e-02 3.93e-01 4.42e-01  -6.0 1.35e+01  -6.8 1.00e+00 1.00e+00f  1
iter    objective    inf_pr   inf_du lg(mu)  ||d||  lg(rg) alpha_du alpha_pr  ls
 110 -2.5334679e-02 3.51e-01 2.08e+01  -6.0 3.43e+01  -7.3 1.00e+00 3.01e-01h  1
 111 -2.5800174e-02 7.28e-01 4.00e+00  -6.0 1.00e+02  -7.8 1.00e+00 6.38e-01h  1
 112 -2.6940002e-02 8.09e-01 6.85e+00  -6.0 3.32e+02  -8.3 1.00e+00 6.43e-01h  1
 113 -2.7449364e-02 8.95e-01 1.13e+01  -6.0 9.96e+02  -8.8 2.32e-01 1.05e-01h  1
 114 -2.8610111e-02 4.17e+00 8.43e+00  -6.0 4.04e+02  -8.3 1.00e+00 5.61e-01h  1
 115 -2.8902221e-02 3.78e+00 2.83e+01  -6.0 7.08e+02  -8.8 5.77e-01 9.98e-02h  1
 116 -3.0610334e-02 3.04e+00 3.35e+01  -6.0 1.71e+03  -9.3 6.96e-01 2.55e-01h  1
 117 -3.0721384e-02 2.86e+00 3.75e+01  -6.0 5.44e+02  -8.9 2.37e-01 6.74e-02h  1
 118 -3.0829276e-02 2.90e+00 3.70e+01  -6.0 5.57e+03  -9.3 1.36e-01 3.38e-02h  1
 119 -3.1013632e-02 2.74e+00 8.07e+01  -6.0 1.23e+03  -8.9 6.09e-01 1.24e-01h  1
iter    objective    inf_pr   inf_du lg(mu)  ||d||  lg(rg) alpha_du alpha_pr  ls
 120 -3.1857952e-02 5.83e+00 1.86e+03  -6.0 1.29e+04  -9.4 1.45e-02 1.01e-01h  1
 121 -3.1989240e-02 5.67e+00 2.81e+03  -6.0 1.86e+03  -9.0 3.59e-01 3.11e-02h  1
 122 -3.2903263e-02 1.40e+01 1.05e+03  -6.0 5.26e+03  -9.4 5.15e-02 1.31e-01h  1
 123 -3.3376080e-02 1.59e+01 3.67e+02  -6.0 5.85e+04  -9.9 7.08e-05 2.39e-03h  1
 124 -3.3828193e-02 1.73e+01 5.78e+01  -6.0 6.00e+04 -10.4 5.08e-03 3.08e-02h  1
 125 -3.3966855e-02 1.71e+01 4.41e+02  -6.0 2.48e+04 -10.9 5.20e-02 1.84e-02h  1
 126 -3.4204830e-02 1.61e+01 4.67e+02  -6.0 6.70e+03 -10.4 6.47e-02 5.77e-02h  1
 127 -3.4747381e-02 1.53e+01 1.01e+03  -6.0 2.21e+04 -10.9 1.28e-01 8.18e-02h  1
 128 -3.4963471e-02 1.45e+01 1.68e+03  -6.0 8.74e+03 -10.5 1.47e-01 5.14e-02h  1
 129 -3.5142460e-02 2.73e+01 1.35e+03  -6.0 1.56e+06 -11.0 9.87e-04 2.65e-03h  1
iter    objective    inf_pr   inf_du lg(mu)  ||d||  lg(rg) alpha_du alpha_pr  ls
 130 -3.5324088e-02 2.61e+01 9.02e+02  -6.0 1.58e+04 -10.5 5.31e-04 4.12e-02h  1
 131 -3.5490259e-02 2.52e+01 8.87e+02  -6.0 1.00e+04 -10.1 4.25e-02 3.77e-02h  1
 132 -3.5905238e-02 2.21e+01 8.44e+02  -6.0 3.73e+03  -9.7 7.21e-02 1.29e-01h  1
 133 -3.7499554e-02 4.05e+01 9.62e+03  -6.0 2.31e+03  -9.3 9.24e-02 6.48e-01h  1
 134 -3.7601955e-02 3.98e+01 9.33e+03  -6.0 6.20e+02  -7.0 7.66e-02 1.62e-02h  1
 135 -3.7641452e-02 3.74e+01 8.73e+03  -6.0 3.19e+02  -7.5 4.24e-02 6.14e-02h  1
 136 -3.7320539e-02 2.46e+01 3.63e+03  -6.0 2.36e+02  -7.1 4.42e-02 3.42e-01h  1
 137 -3.7773609e-02 1.67e+01 5.43e+03  -6.0 1.66e+02  -7.6 1.85e-01 3.23e-01h  1
 138 -3.7846707e-02 1.64e+01 5.53e+03  -6.0 5.74e+02  -8.0 1.63e-02 1.76e-02h  1
 139 -3.8229753e-02 1.34e+01 1.85e+04  -6.0 3.26e+02  -8.5 7.96e-02 1.83e-01h  1
iter    objective    inf_pr   inf_du lg(mu)  ||d||  lg(rg) alpha_du alpha_pr  ls
 140 -3.8367659e-02 1.30e+01 1.70e+04  -6.0 5.63e+02  -9.0 3.57e-02 3.14e-02h  1
 141 -3.8435927e-02 1.27e+01 1.13e+06  -6.0 1.35e+02  -6.8 7.25e-04 2.21e-02h  1
 142 -3.9674165e-02 8.61e+00 7.62e+05  -6.0 1.64e+02  -7.2 4.24e-02 3.22e-01h  1
 143 -3.9994119e-02 6.63e+00 5.86e+05  -6.0 5.75e+01  -5.9 1.84e-02 2.31e-01h  1
 144 -3.9963373e-02 6.03e+00 5.33e+05  -6.0 4.18e+02  -6.4 4.22e-02 9.01e-02h  1
 145 -4.0727209e-02 8.33e+00 4.92e+05  -6.0 3.49e+02  -6.9 6.90e-02 7.77e-02h  1
 146 -4.0166683e-02 8.84e+00 3.86e+05  -6.0 7.49e+01  -7.3 2.68e-01 2.15e-01h  1
 147 -4.0624771e-02 1.02e+01 3.59e+05  -6.0 1.89e+02  -7.8 6.68e-03 6.89e-02h  1
 148 -4.1692123e-02 2.13e+01 2.91e+05  -6.0 2.03e+02  -8.3 5.67e-03 1.89e-01h  1
 149 -4.1567004e-02 2.02e+01 2.74e+05  -6.0 8.59e+02  -8.8 6.14e-03 5.88e-02h  1
iter    objective    inf_pr   inf_du lg(mu)  ||d||  lg(rg) alpha_du alpha_pr  ls
 150 -4.1732704e-02 2.04e+01 2.73e+05  -6.0 7.07e+02  -6.5 2.19e-02 3.06e-03h  1
 151 -4.1778918e-02 1.97e+01 2.64e+05  -6.0 2.32e+01  -7.0 1.18e-03 3.34e-02h  1
 152 -4.1761765e-02 1.88e+01 2.52e+05  -6.0 2.21e+02  -7.5 1.26e-01 4.72e-02h  1
 153 -4.2370488e-02 1.38e+01 1.69e+05  -6.0 7.56e+01  -8.0 2.24e-02 3.29e-01f  1
 154 -4.2694577e-02 1.11e+01 1.28e+05  -6.0 9.89e+01  -8.4 7.57e-01 2.41e-01h  1
 155 -4.2972735e-02 8.71e+00 9.68e+04  -6.0 1.66e+02  -8.9 3.53e-02 2.45e-01h  1
 156 -4.3309352e-02 6.82e+00 6.90e+04  -6.0 4.56e+02  -9.4 2.52e-01 2.87e-01h  1
 157 -4.3797654e-02 4.78e+00 3.21e+04  -6.0 1.74e+02  -9.0 2.63e-01 5.35e-01h  1
 158 -4.3831675e-02 4.55e+00 3.06e+04  -6.0 7.12e+02  -9.5 2.24e-01 4.68e-02h  1
 159 -4.3875941e-02 4.06e+00 2.72e+04  -6.0 2.29e+02  -9.0 2.38e-01 1.09e-01h  1
iter    objective    inf_pr   inf_du lg(mu)  ||d||  lg(rg) alpha_du alpha_pr  ls
 160 -4.3867518e-02 3.99e+00 2.70e+05  -6.0 2.48e+04  -9.5 3.17e-03 1.67e-02h  1
 161 -4.3868014e-02 3.12e+00 2.11e+05  -6.0 1.29e+03 -10.0 2.22e-01 2.18e-01h  1
 162 -4.4362754e-02 4.00e+01 6.67e+04  -6.0 2.50e+03 -10.5 1.53e-01 6.95e-01h  1
 163 -4.4327944e-02 3.80e+01 6.24e+04  -6.0 9.11e+03 -10.9 2.57e-01 6.32e-02h  1
 164 -4.4340054e-02 3.37e+01 5.15e+04  -6.0 3.66e+03 -10.5 5.01e-01 1.73e-01h  1
 165 -4.4400592e-02 2.54e+01 1.89e+04  -6.0 1.66e+03 -10.1 3.05e-01 6.36e-01h  1
 166 -4.4423047e-02 2.52e+01 1.82e+04  -6.0 1.78e+04  -9.7 1.01e-05 3.57e-02H  1
 167 -4.4482214e-02 2.51e+01 7.92e+02  -6.0 1.48e+03  -9.2 1.68e-01 9.68e-01h  1
 168 -4.4670900e-02 2.34e+01 7.39e+02  -6.0 1.18e+04  -9.7 6.44e-02 6.71e-02h  1
 169 -4.4865720e-02 1.98e+01 6.18e+02  -6.0 1.27e+03  -9.3 3.48e-01 1.54e-01h  1
iter    objective    inf_pr   inf_du lg(mu)  ||d||  lg(rg) alpha_du alpha_pr  ls
 170 -4.4881901e-02 1.86e+01 5.73e+02  -6.0 1.56e+02  -8.9 3.94e-01 6.03e-02h  1
 171 -4.4922298e-02 1.70e+01 5.19e+02  -6.0 1.19e+03  -9.3 1.56e-01 9.25e-02h  1
 172 -4.5137745e-02 8.50e+00 2.58e+02  -6.0 4.43e+02  -9.8 5.86e-01 5.02e-01h  1
 173 -4.5455220e-02 1.81e+01 2.23e+02  -6.0 1.84e+04 -10.3 1.59e-01 1.36e-01h  1
 174 -4.5611066e-02 1.49e+01 1.81e+02  -6.0 2.30e+03 -10.8 2.15e-01 1.88e-01h  1
 175 -4.5982870e-02 1.84e+01 6.54e+01  -6.0 1.67e+03    -  5.22e-01 7.19e-01h  1
 176 -4.6000480e-02 1.82e+01 8.92e+01  -6.0 3.51e+04 -10.3 5.04e-02 7.17e-03h  2
 177 -4.6032677e-02 1.78e+01 6.67e+01  -6.0 3.73e+03    -  2.69e-01 2.51e-01h  1
 178 -4.6045602e-02 1.52e+01 7.38e+02  -6.0 1.61e+03 -10.8 1.87e-01 4.67e-01h  1
 179 -4.6066587e-02 1.62e+01 9.02e+02  -6.0 1.02e+04 -10.4 1.95e-01 2.89e-02h  1
iter    objective    inf_pr   inf_du lg(mu)  ||d||  lg(rg) alpha_du alpha_pr  ls
 180 -4.6103063e-02 1.95e+01 7.26e+03  -6.0 2.01e+03    -  2.61e-02 3.88e-01h  1
 181 -4.6114442e-02 1.84e+01 6.83e+03  -6.0 4.97e+02  -9.1 6.17e-03 5.64e-02h  1
 182 -4.6198694e-02 2.24e+00 6.54e+03  -6.0 7.00e+01  -8.6 4.22e-02 8.80e-01h  1
 183 -4.6331763e-02 1.77e-01 6.81e+03  -6.0 6.83e+01  -9.1 4.22e-01 1.00e+00h  1
 184 -4.6367511e-02 1.66e-01 1.21e+04  -6.0 1.99e+02  -9.6 4.16e-01 1.03e-01h  1
 185 -4.6381228e-02 1.67e-01 2.33e+04  -6.0 5.83e+02 -10.1 2.88e-01 4.65e-02h  1
 186 -4.6416201e-02 4.59e-01 1.48e+06  -6.0 1.89e+04 -10.5 2.55e-04 8.52e-03h  3
 187 -4.6434104e-02 1.51e+00 8.98e+05  -6.0 7.35e+02 -10.1 6.64e-02 3.86e-01h  1
 188 -4.6407581e-02 2.82e+01 2.31e+05  -6.0 2.72e+03 -10.6 1.48e-01 7.45e-01H  1
 189 -4.6419726e-02 2.86e+01 2.21e+05  -6.0 3.17e+04    -  1.27e-01 4.22e-02H  1
iter    objective    inf_pr   inf_du lg(mu)  ||d||  lg(rg) alpha_du alpha_pr  ls
 190 -4.6438361e-02 2.20e+01 1.39e+05  -6.0 1.47e+03    -  3.49e-02 3.73e-01h  1
 191 -4.6453639e-02 2.60e+01 1.28e+05  -6.0 8.11e+03 -11.1 3.75e-01 8.03e-02h  1
 192 -4.6468226e-02 2.48e+01 1.19e+05  -6.0 2.94e+03    -  1.73e-01 6.76e-02h  1
 193 -4.6512969e-02 2.32e+01 1.02e+05  -6.0 2.72e+03    -  4.57e-02 1.40e-01h  1
 194 -4.6516181e-02 2.25e+01 8.91e+04  -6.0 3.24e+03    -  4.12e-01 1.27e-01h  1
 195 -4.6542415e-02 2.45e+01 6.32e+04  -6.0 2.82e+03  -9.7 2.36e-02 2.91e-01h  1
 196 -4.6574957e-02 2.98e+01 6.53e+04  -6.0 2.65e+03  -9.3 1.78e-03 4.26e-01h  1
 197 -4.6712528e-02 1.62e-01 6.34e+03  -6.0 1.46e+02  -8.9 6.36e-02 1.00e+00h  1
 198 -4.6711222e-02 2.31e-01 6.32e+03  -6.0 6.02e+03    -  2.70e-01 1.29e-02h  2
 199 -4.6720135e-02 1.56e+00 3.64e+03  -6.0 1.67e+03    -  6.48e-01 3.74e-01h  1
iter    objective    inf_pr   inf_du lg(mu)  ||d||  lg(rg) alpha_du alpha_pr  ls
 200 -4.6793832e-02 8.79e-01 1.93e+03  -6.0 3.60e+02  -9.4 2.12e-02 5.50e-01h  1
 201 -4.6882000e-02 4.74e+00 1.13e+03  -6.0 1.17e+03  -9.8 3.14e-01 4.69e-01h  1
 202 -4.6869867e-02 2.88e+00 6.43e+04  -6.0 1.64e+03    -  1.93e-02 3.86e-01h  1
 203 -4.6871722e-02 1.55e+00 3.20e+04  -6.0 9.79e+02    -  5.46e-01 5.02e-01h  1
 204 -4.6930198e-02 9.90e-01 2.36e+01  -6.0 2.86e+02  -8.5 1.00e+00 1.00e+00h  1
 205 -4.6903492e-02 2.89e+00 3.65e+03  -6.0 2.42e+03    -  8.23e-01 2.45e-01h  1
 206 -4.6858140e-02 3.80e+00 6.42e+03  -6.0 3.64e+03    -  8.43e-01 2.50e-01h  1
 207 -4.6970517e-02 5.41e-01 2.56e+03  -6.0 1.18e+02  -9.0 3.87e-01 8.70e-01h  1
 208 -4.6985057e-02 8.13e-01 3.74e+06  -6.0 7.37e+02  -9.5 1.00e-03 2.37e-01h  3
 209 -4.6916478e-02 4.57e+00 6.84e+05  -6.0 1.93e+03    -  2.29e-01 8.17e-01h  1
iter    objective    inf_pr   inf_du lg(mu)  ||d||  lg(rg) alpha_du alpha_pr  ls
 210 -4.6906657e-02 5.10e+00 5.40e+05  -6.0 3.93e+03    -  4.43e-01 2.11e-01h  3
 211 -4.7063786e-02 6.79e+00 5.80e+02  -6.0 2.24e+03    -  3.21e-01 1.00e+00h  1
 212 -4.7094323e-02 6.37e+00 5.35e+02  -6.0 1.52e+03    -  1.28e-01 6.12e-02h  1
 213 -4.7096625e-02 1.35e-01 5.84e+00  -6.0 1.57e+02    -  5.37e-01 1.00e+00h  1
 214 -4.7198884e-02 5.11e+00 4.86e+00  -6.0 1.72e+03    -  1.00e+00 5.93e-01h  1
 215 -4.7237318e-02 1.96e-01 1.99e+00  -6.0 2.43e+02    -  1.00e+00 1.00e+00h  1
 216 -4.7215586e-02 1.39e-01 1.41e+00  -6.0 5.61e+02    -  1.00e+00 2.50e-01h  3
 217 -4.7209967e-02 1.30e-01 1.84e+00  -6.0 7.12e+02    -  1.00e+00 6.25e-02h  5
 218 -4.7205184e-02 1.21e-01 1.42e+00  -6.0 5.91e+02    -  1.00e+00 6.25e-02h  5
 219 -4.7192187e-02 8.70e-02 8.77e-01  -6.0 3.52e+02    -  1.00e+00 2.50e-01h  3
iter    objective    inf_pr   inf_du lg(mu)  ||d||  lg(rg) alpha_du alpha_pr  ls
 220 -4.7165913e-02 4.89e-02 5.57e-02  -6.0 1.39e+02    -  1.00e+00 1.00e+00h  1
 221 -4.7168378e-02 1.76e-03 3.45e-03  -6.0 2.28e+01    -  1.00e+00 1.00e+00h  1
 222 -4.7168407e-02 1.10e-07 5.31e-08  -6.0 1.71e-01    -  1.00e+00 1.00e+00h  1
 223 -4.7601562e-02 1.37e+01 2.33e+01  -7.5 7.69e+03    -  9.27e-02 1.51e-01f  1
 224 -4.8120201e-02 1.10e+01 4.84e+01  -7.5 7.17e+03    -  1.96e-01 2.65e-01h  1
 225 -4.8406544e-02 1.24e+01 3.31e+01  -7.5 7.82e+03    -  2.20e-01 1.93e-01h  1
 226 -4.8498001e-02 1.01e+01 1.27e+02  -7.5 1.12e+03  -9.9 2.18e-02 1.84e-01h  1
 227 -4.8557652e-02 7.87e+00 9.54e+01  -7.5 2.58e+02  -9.5 3.68e-01 2.23e-01h  1
 228 -4.8665680e-02 5.01e+00 8.55e+01  -7.5 6.76e+02 -10.0 6.48e-02 3.73e-01h  1
 229 -4.9235644e-02 3.48e+01 7.01e+01  -7.5 9.67e+03    -  7.33e-02 4.34e-01h  1
iter    objective    inf_pr   inf_du lg(mu)  ||d||  lg(rg) alpha_du alpha_pr  ls
 230 -4.9348337e-02 2.86e+01 6.68e+01  -7.5 7.08e+03    -  9.39e-02 2.09e-01h  1
 231 -4.9388445e-02 2.71e+01 4.99e+01  -7.5 9.03e+03    -  2.16e-01 5.45e-02h  1
 232 -4.9465819e-02 2.34e+01 3.51e+01  -7.5 6.88e+03    -  2.71e-01 1.61e-01h  1
 233 -4.9565796e-02 1.87e+01 6.04e+01  -7.5 5.90e+03    -  5.02e-01 2.77e-01h  1
 234 -4.9591182e-02 1.69e+01 2.59e+02  -7.5 4.70e+03    -  4.86e-02 1.05e-01h  1
 235 -4.9620499e-02 1.48e+01 4.76e+02  -7.5 4.31e+03    -  3.40e-02 1.38e-01h  1
 236 -4.9627811e-02 1.19e+01 4.82e+02  -7.5 1.62e+02  -9.6 4.48e-02 1.97e-01h  1
 237 -4.9649327e-02 6.59e+00 5.44e+03  -7.5 4.13e+02 -10.1 2.13e-03 4.50e-01h  1
 238 -4.9684871e-02 5.77e+00 4.56e+03  -7.5 4.15e+03    -  1.24e-02 1.54e-01h  1
 239 -4.9695458e-02 5.32e+00 4.17e+03  -7.5 3.36e+03    -  1.83e-01 8.65e-02h  1
iter    objective    inf_pr   inf_du lg(mu)  ||d||  lg(rg) alpha_du alpha_pr  ls
 240 -4.9710397e-02 3.80e+00 2.88e+03  -7.5 8.40e+02 -10.5 4.47e-02 3.06e-01h  1
 241 -4.9721305e-02 3.67e+00 2.67e+03  -7.5 3.41e+03    -  5.89e-01 7.41e-02h  1
 242 -4.9847784e-02 1.56e+01 4.86e+01  -7.5 3.19e+03    -  6.98e-01 1.00e+00h  1
 243 -4.9851741e-02 9.51e+00 2.90e+01  -7.5 1.40e+03 -11.0 7.83e-01 3.90e-01h  1
 244 -4.9865145e-02 3.20e+01 1.23e+01  -7.5 2.28e+03 -11.5 1.00e+00 5.54e-01h  1
 245 -4.9853346e-02 6.39e+00 3.65e+04  -7.5 6.25e+02 -12.0 3.28e-03 9.75e-01h  1
 246 -4.9852879e-02 4.80e+00 2.75e+04  -7.5 1.04e+03  -8.8 1.00e+00 2.50e-01h  3
 247 -4.9851656e-02 1.49e+00 1.94e+01  -7.5 3.24e+02  -9.3 1.00e+00 1.00e+00h  1
 248 -4.9851794e-02 1.81e+00 1.76e+01  -7.5 1.95e+03    -  1.00e+00 9.22e-02h  2
 249 -4.9852106e-02 2.68e+00 1.32e+01  -7.5 1.23e+03    -  1.00e+00 2.50e-01h  3
iter    objective    inf_pr   inf_du lg(mu)  ||d||  lg(rg) alpha_du alpha_pr  ls
 250 -4.9852314e-02 3.71e+00 1.09e+01  -7.5 1.88e+03    -  1.00e+00 1.74e-01h  3
 251 -4.9852369e-02 3.69e+00 1.04e+01  -7.5 2.30e+03    -  1.00e+00 4.59e-02h  5
 252 -4.9852421e-02 3.68e+00 9.96e+00  -7.5 2.40e+03    -  1.00e+00 4.39e-02h  5
 253 -4.9852470e-02 3.68e+00 9.55e+00  -7.5 2.55e+03    -  1.00e+00 4.15e-02h  5
 254 -4.9852494e-02 3.65e+00 1.25e+01  -7.5 2.69e+03    -  1.00e+00 1.98e-02h  6
 255 -4.9852517e-02 3.61e+00 1.96e+01  -7.5 2.75e+03    -  1.00e+00 1.94e-02h  6
 256 -4.9852540e-02 3.58e+00 2.90e+01  -7.5 2.82e+03    -  8.87e-01 1.90e-02h  6
 257 -4.9852561e-02 3.56e+00 4.75e+01  -7.5 2.89e+03    -  1.00e+00 1.86e-02h  6
 258 -4.9853201e-02 4.18e+01 2.46e+01  -7.5 2.95e+03    -  8.11e-01 5.84e-01w  1
 259 -4.9853075e-02 4.15e+01 2.45e+01  -7.5 4.85e+03    -  7.98e-03 8.52e-03w  1
iter    objective    inf_pr   inf_du lg(mu)  ||d||  lg(rg) alpha_du alpha_pr  ls
 260 -4.9852146e-02 4.01e+01 2.87e+02  -7.5 4.98e+03    -  2.67e-01 6.11e-02w  1
 261 -4.9852581e-02 3.53e+00 7.32e+01  -7.5 5.08e+03    -  8.11e-01 1.83e-02h  5
 262 -4.9852600e-02 3.51e+00 1.24e+02  -7.5 3.02e+03    -  1.00e+00 1.79e-02h  6
 263 -4.9852619e-02 3.48e+00 1.92e+02  -7.5 3.08e+03    -  7.83e-01 1.76e-02h  6
 264 -4.9852636e-02 3.46e+00 3.18e+02  -7.5 3.14e+03    -  9.17e-01 1.74e-02h  6
 265 -4.9852647e-02 3.44e+00 3.88e+02  -7.5 3.20e+03    -  3.30e-01 1.66e-02h  6
 266 -4.9852488e-02 3.43e+00 4.23e+02  -7.5 3.27e+03    -  3.80e-01 4.59e-03h  5
 267 -4.9852521e-02 3.43e+00 6.15e+02  -7.5 3.27e+03    -  6.16e-01 2.30e-02h  5
 268 -4.9852534e-02 3.41e+00 1.11e+03  -7.5 3.35e+03    -  1.00e+00 1.57e-02h  6
 269 -4.9852525e-02 3.40e+00 1.22e+03  -7.5 3.37e+03    -  1.35e-01 1.65e-02h  6
iter    objective    inf_pr   inf_du lg(mu)  ||d||  lg(rg) alpha_du alpha_pr  ls
 270 -4.9852519e-02 3.39e+00 1.61e+03  -7.5 3.43e+03    -  3.60e-01 1.86e-03h  9
 271 -4.9851372e-02 4.56e+01 1.78e+02  -7.5 3.41e+03    -  9.33e-02 5.33e-01w  1
 272 -4.9851393e-02 4.50e+01 1.70e+02  -7.5 4.69e+03  -9.8 1.37e-02 1.26e-02w  1
 273 -4.9843361e-02 5.17e+01 4.50e+03  -7.5 5.12e+03    -  4.36e-02 2.31e-01w  1
 274 -4.9852517e-02 3.39e+00 1.74e+03  -7.5 5.12e+03    -  9.33e-02 1.04e-03h  9
 275 -4.9852516e-02 3.39e+00 3.28e+03  -7.5 3.40e+03    -  1.00e+00 2.55e-04h 12
 276 -4.9852516e-02 3.39e+00 3.51e+03  -7.5 3.25e+03    -  9.33e-02 1.37e-04h 13
 277 -4.9852516e-02 3.38e+00 4.61e+03  -7.5 3.23e+03    -  4.22e-01 6.91e-05h 14
 278 -4.9852454e-02 3.36e+00 4.73e+03  -7.5 3.04e+03    -  9.11e-02 1.91e-02h  6
 279 -4.9852382e-02 3.34e+00 6.79e+03  -7.5 3.01e+03    -  7.59e-01 1.88e-02h  6
iter    objective    inf_pr   inf_du lg(mu)  ||d||  lg(rg) alpha_du alpha_pr  ls
 280 -4.9853002e-02 1.26e+00 3.62e+00  -7.5 3.13e+02    -  1.00e+00 1.00e+00h  1
 281 -4.9852961e-02 2.06e-05 9.65e+00  -7.5 2.19e-02  -1.9 9.86e-01 1.00e+00h  1
 282 -4.9852973e-02 1.01e-09 2.64e-05  -7.5 2.00e-04  -2.4 1.00e+00 1.00e+00h  1
 283 -4.9852986e-02 8.00e-10 9.91e-06  -7.5 3.94e-04  -2.9 1.00e+00 1.00e+00h  1
 284 -4.9852999e-02 3.39e-09 2.07e-06  -7.5 1.27e-03  -3.4 1.00e+00 1.00e+00h  1
 285 -4.9853018e-02 2.35e-08 5.90e-07  -7.5 3.44e-03  -3.8 1.00e+00 1.00e+00h  1
 286 -4.9853050e-02 6.16e-08 2.92e-06  -7.5 6.35e-03  -4.3 1.00e+00 1.00e+00h  1
 287 -4.9853164e-02 4.83e-03 1.42e-01  -7.5 2.70e+02    -  1.00e+00 7.13e-02h  2
 288 -4.9853381e-02 2.73e+00 8.25e-01  -7.5 1.88e+03    -  1.00e+00 2.43e-01h  3
 289 -4.9853384e-02 9.50e-05 8.07e-05  -7.5 6.13e-02  -4.8 1.00e+00 1.00e+00h  1
iter    objective    inf_pr   inf_du lg(mu)  ||d||  lg(rg) alpha_du alpha_pr  ls
 290 -4.9853488e-02 4.01e-04 5.23e-02  -7.5 2.00e+01    -  1.00e+00 2.54e-01h  2
 291 -4.9853646e-02 2.13e-03 4.15e-04  -7.5 1.47e+01    -  1.00e+00 1.00e+00h  1
 292 -4.9853646e-02 2.13e-03 2.55e-01  -7.5 4.25e+02    -  1.00e+00 1.95e-03h 10
 293 -4.9853714e-02 3.55e-03 4.75e-03  -7.5 5.12e+02    -  1.00e+00 1.00e+00H  1
 294 -4.9853708e-02 1.79e-04 1.43e-05  -7.5 2.59e+01    -  1.00e+00 1.00e+00H  1
 295 -4.9853708e-02 1.17e-05 2.47e-08  -7.5 9.62e-01    -  1.00e+00 1.00e+00h  1
 296 -4.9853708e-02 4.35e-10 4.05e-13  -7.5 1.37e-04    -  1.00e+00 1.00e+00h  1
 297 -4.9868099e-02 7.42e+00 7.23e-01  -9.0 3.44e+03    -  3.01e-01 2.22e-01h  1
 298 -4.9869313e-02 5.13e+00 4.12e-01  -9.0 5.08e-01  -5.3 1.69e-01 3.09e-01h  1
 299 -4.9869317e-02 5.12e+00 4.09e-01  -9.0 3.51e-01  -5.8 1.83e-03 1.38e-03h  1
iter    objective    inf_pr   inf_du lg(mu)  ||d||  lg(rg) alpha_du alpha_pr  ls
 300 -4.9858649e-02 5.12e+00 4.52e-01  -9.0 8.86e+02  -6.2 3.84e-04 1.46e-03h  1
 301 -4.9860994e-02 4.87e+00 7.03e-01  -9.0 7.51e+00  -6.7 8.83e-02 4.73e-02h  1
 302 -4.9866099e-02 3.65e+00 1.25e+00  -9.0 8.61e+00  -7.2 3.74e-01 2.50e-01f  1
 303 -4.9870427e-02 2.45e+00 3.92e+00  -9.0 1.31e+00  -7.7 5.21e-01 3.29e-01h  1
 304 -4.9871731e-02 2.14e-01 3.73e+02  -9.0 1.15e+00  -7.2 4.20e-02 9.13e-01h  1
 305 -4.9871731e-02 2.13e-01 3.70e+02  -9.0 8.91e-02   0.6 8.27e-03 6.42e-03h  1
 306 -4.9871729e-02 2.12e-01 3.68e+02  -9.0 8.88e-02   0.1 4.39e-03 6.73e-03h  1
 307 -4.9871729e-02 2.11e-01 3.67e+02  -9.0 8.64e-02   0.6 1.82e-02 8.81e-04h  1
 308 -4.9871723e-02 2.09e-01 3.63e+02  -9.0 8.75e-02   0.1 3.66e-04 1.27e-02h  1
In iteration 308, 1 Slack too small, adjusting variable bound
 309 -4.9871721e-02 2.08e-01 3.61e+02  -9.0 8.69e-02   0.5 1.95e-02 3.74e-03h  1
iter    objective    inf_pr   inf_du lg(mu)  ||d||  lg(rg) alpha_du alpha_pr  ls
 310 -4.9871717e-02 2.08e-01 3.61e+02  -9.0 3.45e-01   0.0 2.92e-05 1.69e-03h  1
 311 -4.9871717e-02 2.08e-01 3.61e+02  -9.0 8.89e-02   0.5 4.54e-02 7.42e-04h  1
In iteration 311, 1 Slack too small, adjusting variable bound
 312 -4.9871709e-02 2.04e-01 3.60e+02  -9.0 7.87e-02   0.9 1.71e-03 1.67e-02h  1
 313 -4.9871708e-02 2.04e-01 3.60e+02  -9.0 1.05e-01   0.4 2.89e-03 1.05e-03h  1
 314 -4.9871705e-02 2.02e-01 3.58e+02  -9.0 7.71e-02   0.8 7.79e-03 7.26e-03h  1
 315 -4.9871702e-02 2.01e-01 3.55e+02  -9.0 7.61e-02   1.3 3.66e-02 6.46e-03h  1
 316 -4.9871701e-02 2.00e-01 3.54e+02  -9.0 7.63e-02   0.8 3.04e-02 2.96e-03h  1
 317 -4.9871627e-02 1.83e-01 3.24e+02  -9.0 8.13e-02   0.3 1.80e-04 8.48e-02h  1
 318 -4.9871627e-02 1.83e-01 3.24e+02  -9.0 6.87e-02   0.7 2.74e-01 6.80e-04h  1
 319 -4.9871554e-02 1.67e-01 2.95e+02  -9.0 7.34e-02   0.3 6.89e-04 8.79e-02h  1
iter    objective    inf_pr   inf_du lg(mu)  ||d||  lg(rg) alpha_du alpha_pr  ls
 320 -4.9871554e-02 1.67e-01 2.95e+02  -9.0 6.27e-02   0.7 9.27e-03 2.48e-04h  1
 321 -4.9871497e-02 1.54e-01 2.72e+02  -9.0 6.69e-02   0.2 9.87e-04 7.99e-02h  1
 322 -4.9871497e-02 1.54e-01 2.72e+02  -9.0 5.77e-02   0.6 5.06e-01 2.01e-04h  1
 323 -4.9871466e-02 1.45e-01 2.57e+02  -9.0 6.15e-02   0.1 6.96e-03 5.43e-02h  1
 324 -4.9871466e-02 1.45e-01 2.57e+02  -9.0 5.50e-02   0.6 8.66e-03 2.65e-05h  1
